
ASes= { 1, 2, 3, 4, 5, 6, 7, 8, 9, 10, 11 } ;


Objects= { 1, 2, 3, 4, 5, 6, 7, 8, 9, 10, 11, 12, 13, 14, 15, 16, 17, 18, 19, 20, 21, 22, 23, 24, 25, 26, 27, 28, 29, 30, 31, 32, 33, 34, 35, 36, 37, 38, 39, 40, 41, 42, 43, 44, 45, 46, 47, 48, 49, 50, 51, 52, 53, 54, 55, 56, 57, 58, 59, 60, 61, 62, 63, 64, 65, 66, 67, 68, 69, 70, 71, 72, 73, 74, 75, 76, 77, 78, 79, 80, 81, 82, 83, 84, 85, 86, 87, 88, 89, 90, 91, 92, 93, 94, 95, 96, 97, 98, 99, 100 } ;


QualityLevels= { 0, 1, 2, 3, 4, 5 } ;

Arcs = {<2,1,490000>, <1,2,490000>, <11,1,490000>, <1,11,490000>, <11,2,490000>, <2,11,490000>, <11,10,490000>, <10,11,490000>, <3,2,490000>, <2,3,490000>, <4,3,490000>, <3,4,490000>, <5,4,490000>, <4,5,490000>, <6,5,490000>, <5,6,490000>, <7,6,490000>, <6,7,490000>, <8,4,490000>, <4,8,490000>, <8,7,490000>, <7,8,490000>, <9,3,490000>, <3,9,490000>, <9,8,490000>, <8,9,490000>, <10,9,490000>, <9,10,490000>};


RatePerQuality= [ 0  300  700  1500  2500  3500 ] ;


CacheSpacePerQuality= [ 10000  11.25  26.25  56.25  93.75  131.25 ] ;


UtilityPerQuality= [ 0  0.2  0.4  0.6  0.8  1 ] ;


ObjectsPublishedByProducers=[ [ 0  0  0  0  0  0  0  1  0  0  0 ]  [ 0  0  0  0  0  0  0  1  0  0  0 ]  [ 0  0  0  0  0  0  0  1  0  0  0 ]  [ 0  0  0  0  0  0  0  1  0  0  0 ]  [ 0  0  0  0  0  0  0  1  0  0  0 ]  [ 0  0  0  0  0  0  0  1  0  0  0 ]  [ 0  0  0  0  0  0  0  1  0  0  0 ]  [ 0  0  0  0  0  0  0  1  0  0  0 ]  [ 0  0  0  0  0  0  0  1  0  0  0 ]  [ 0  0  0  0  0  0  0  1  0  0  0 ]  [ 0  0  0  0  0  0  0  1  0  0  0 ]  [ 0  0  0  0  0  0  0  1  0  0  0 ]  [ 0  0  0  0  0  0  0  1  0  0  0 ]  [ 0  0  0  0  0  0  0  1  0  0  0 ]  [ 0  0  0  0  0  0  0  1  0  0  0 ]  [ 0  0  0  0  0  0  0  1  0  0  0 ]  [ 0  0  0  0  0  0  0  1  0  0  0 ]  [ 0  0  0  0  0  0  0  1  0  0  0 ]  [ 0  0  0  0  0  0  0  1  0  0  0 ]  [ 0  0  0  0  0  0  0  1  0  0  0 ]  [ 0  0  0  0  0  0  0  1  0  0  0 ]  [ 0  0  0  0  0  0  0  1  0  0  0 ]  [ 0  0  0  0  0  0  0  1  0  0  0 ]  [ 0  0  0  0  0  0  0  1  0  0  0 ]  [ 0  0  0  0  0  0  0  1  0  0  0 ]  [ 0  0  0  0  0  0  0  1  0  0  0 ]  [ 0  0  0  0  0  0  0  1  0  0  0 ]  [ 0  0  0  0  0  0  0  1  0  0  0 ]  [ 0  0  0  0  0  0  0  1  0  0  0 ]  [ 0  0  0  0  0  0  0  1  0  0  0 ]  [ 0  0  0  0  0  0  0  1  0  0  0 ]  [ 0  0  0  0  0  0  0  1  0  0  0 ]  [ 0  0  0  0  0  0  0  1  0  0  0 ]  [ 0  0  0  0  0  0  0  1  0  0  0 ]  [ 0  0  0  0  0  0  0  1  0  0  0 ]  [ 0  0  0  0  0  0  0  1  0  0  0 ]  [ 0  0  0  0  0  0  0  1  0  0  0 ]  [ 0  0  0  0  0  0  0  1  0  0  0 ]  [ 0  0  0  0  0  0  0  1  0  0  0 ]  [ 0  0  0  0  0  0  0  1  0  0  0 ]  [ 0  0  0  0  0  0  0  1  0  0  0 ]  [ 0  0  0  0  0  0  0  1  0  0  0 ]  [ 0  0  0  0  0  0  0  1  0  0  0 ]  [ 0  0  0  0  0  0  0  1  0  0  0 ]  [ 0  0  0  0  0  0  0  1  0  0  0 ]  [ 0  0  0  0  0  0  0  1  0  0  0 ]  [ 0  0  0  0  0  0  0  1  0  0  0 ]  [ 0  0  0  0  0  0  0  1  0  0  0 ]  [ 0  0  0  0  0  0  0  1  0  0  0 ]  [ 0  0  0  0  0  0  0  1  0  0  0 ]  [ 0  0  0  0  0  0  0  1  0  0  0 ]  [ 0  0  0  0  0  0  0  1  0  0  0 ]  [ 0  0  0  0  0  0  0  1  0  0  0 ]  [ 0  0  0  0  0  0  0  1  0  0  0 ]  [ 0  0  0  0  0  0  0  1  0  0  0 ]  [ 0  0  0  0  0  0  0  1  0  0  0 ]  [ 0  0  0  0  0  0  0  1  0  0  0 ]  [ 0  0  0  0  0  0  0  1  0  0  0 ]  [ 0  0  0  0  0  0  0  1  0  0  0 ]  [ 0  0  0  0  0  0  0  1  0  0  0 ]  [ 0  0  0  0  0  0  0  1  0  0  0 ]  [ 0  0  0  0  0  0  0  1  0  0  0 ]  [ 0  0  0  0  0  0  0  1  0  0  0 ]  [ 0  0  0  0  0  0  0  1  0  0  0 ]  [ 0  0  0  0  0  0  0  1  0  0  0 ]  [ 0  0  0  0  0  0  0  1  0  0  0 ]  [ 0  0  0  0  0  0  0  1  0  0  0 ]  [ 0  0  0  0  0  0  0  1  0  0  0 ]  [ 0  0  0  0  0  0  0  1  0  0  0 ]  [ 0  0  0  0  0  0  0  1  0  0  0 ]  [ 0  0  0  0  0  0  0  1  0  0  0 ]  [ 0  0  0  0  0  0  0  1  0  0  0 ]  [ 0  0  0  0  0  0  0  1  0  0  0 ]  [ 0  0  0  0  0  0  0  1  0  0  0 ]  [ 0  0  0  0  0  0  0  1  0  0  0 ]  [ 0  0  0  0  0  0  0  1  0  0  0 ]  [ 0  0  0  0  0  0  0  1  0  0  0 ]  [ 0  0  0  0  0  0  0  1  0  0  0 ]  [ 0  0  0  0  0  0  0  1  0  0  0 ]  [ 0  0  0  0  0  0  0  1  0  0  0 ]  [ 0  0  0  0  0  0  0  1  0  0  0 ]  [ 0  0  0  0  0  0  0  1  0  0  0 ]  [ 0  0  0  0  0  0  0  1  0  0  0 ]  [ 0  0  0  0  0  0  0  1  0  0  0 ]  [ 0  0  0  0  0  0  0  1  0  0  0 ]  [ 0  0  0  0  0  0  0  1  0  0  0 ]  [ 0  0  0  0  0  0  0  1  0  0  0 ]  [ 0  0  0  0  0  0  0  1  0  0  0 ]  [ 0  0  0  0  0  0  0  1  0  0  0 ]  [ 0  0  0  0  0  0  0  1  0  0  0 ]  [ 0  0  0  0  0  0  0  1  0  0  0 ]  [ 0  0  0  0  0  0  0  1  0  0  0 ]  [ 0  0  0  0  0  0  0  1  0  0  0 ]  [ 0  0  0  0  0  0  0  1  0  0  0 ]  [ 0  0  0  0  0  0  0  1  0  0  0 ]  [ 0  0  0  0  0  0  0  1  0  0  0 ]  [ 0  0  0  0  0  0  0  1  0  0  0 ]  [ 0  0  0  0  0  0  0  1  0  0  0 ]  [ 0  0  0  0  0  0  0  1  0  0  0 ]  [ 0  0  0  0  0  0  0  1  0  0  0 ] ];

ObjRequests = {  <1,5,534>, <2,5,67>, <3,5,280>, <4,5,85>, <5,5,116>, <6,5,190>, <7,5,41>, <8,5,106>, <9,5,10>, <10,5,10>, <11,5,28>, <12,5,20>, <13,5,31>, <14,5,74>, <15,5,4>, <16,5,47>, <17,5,75>, <18,5,49>, <19,5,32>, <20,5,13>, <21,5,16>, <22,5,33>, <23,5,23>, <24,5,18>, <25,5,25>, <26,5,37>, <27,5,32>, <28,5,19>, <29,5,11>, <30,5,32>, <31,5,24>, <32,5,10>, <33,5,12>, <34,5,10>, <35,5,7>, <36,5,11>, <37,5,14>, <38,5,8>, <39,5,29>, <41,5,2>, <42,5,4>, <43,5,23>, <44,5,13>, <45,5,16>, <46,5,15>, <47,5,6>, <48,5,2>, <49,5,9>, <50,5,25>, <51,5,1>, <52,5,20>, <53,5,23>, <54,5,8>, <55,5,18>, <56,5,5>, <57,5,29>, <58,5,5>, <59,5,26>, <60,5,12>, <61,5,13>, <62,5,16>, <63,5,15>, <64,5,9>, <65,5,6>, <66,5,6>, <67,5,2>, <68,5,3>, <69,5,20>, <70,5,15>, <71,5,4>, <72,5,7>, <73,5,16>, <74,5,10>, <75,5,1>, <76,5,10>, <77,5,10>, <78,5,3>, <79,5,12>, <80,5,3>, <81,5,2>, <82,5,1>, <83,5,10>, <84,5,3>, <85,5,17>, <86,5,11>, <87,5,13>, <88,5,13>, <89,5,4>, <93,5,10>, <94,5,14>, <95,5,1>, <96,5,8>, <97,5,9>, <98,5,18>, <99,5,6>, <100,5,7>, <1,6,56>, <2,6,926>, <3,6,196>, <4,6,89>, <5,6,157>, <6,6,92>, <7,6,123>, <8,6,134>, <9,6,239>, <10,6,83>, <11,6,3>, <12,6,74>, <13,6,124>, <14,6,41>, <15,6,43>, <16,6,6>, <17,6,48>, <18,6,61>, <19,6,7>, <20,6,28>, <21,6,27>, <22,6,34>, <24,6,5>, <25,6,20>, <26,6,15>, <27,6,28>, <28,6,10>, <29,6,39>, <30,6,6>, <31,6,9>, <32,6,22>, <33,6,22>, <34,6,21>, <35,6,33>, <36,6,40>, <37,6,34>, <38,6,21>, <39,6,1>, <40,6,16>, <41,6,5>, <42,6,17>, <43,6,30>, <44,6,3>, <45,6,9>, <47,6,3>, <48,6,45>, <49,6,35>, <50,6,35>, <51,6,12>, <52,6,10>, <53,6,11>, <54,6,33>, <55,6,19>, <56,6,33>, <57,6,10>, <58,6,44>, <59,6,1>, <60,6,15>, <61,6,5>, <62,6,16>, <63,6,5>, <64,6,12>, <65,6,26>, <66,6,7>, <67,6,5>, <68,6,14>, <69,6,12>, <70,6,4>, <71,6,3>, <72,6,19>, <73,6,7>, <74,6,9>, <75,6,8>, <76,6,4>, <77,6,5>, <78,6,12>, <79,6,4>, <80,6,9>, <81,6,13>, <82,6,1>, <83,6,2>, <84,6,11>, <85,6,14>, <86,6,10>, <87,6,4>, <88,6,7>, <90,6,5>, <91,6,7>, <92,6,7>, <93,6,4>, <94,6,3>, <95,6,3>, <96,6,2>, <97,6,3>, <98,6,3>, <99,6,8>, <100,6,7>, <1,7,2086>, <2,7,62>, <3,7,254>, <4,7,69>, <5,7,123>, <6,7,41>, <7,7,12>, <8,7,139>, <9,7,12>, <10,7,157>, <11,7,96>, <12,7,17>, <13,7,100>, <14,7,7>, <15,7,58>, <16,7,2>, <17,7,57>, <18,7,6>, <19,7,2>, <20,7,86>, <21,7,91>, <22,7,12>, <23,7,10>, <24,7,4>, <25,7,24>, <26,7,24>, <27,7,15>, <28,7,60>, <29,7,36>, <30,7,22>, <31,7,26>, <32,7,54>, <33,7,17>, <34,7,27>, <35,7,3>, <36,7,16>, <37,7,4>, <38,7,28>, <39,7,5>, <40,7,36>, <41,7,23>, <42,7,30>, <43,7,22>, <44,7,35>, <45,7,18>, <46,7,46>, <47,7,32>, <48,7,2>, <49,7,2>, <50,7,1>, <51,7,2>, <52,7,15>, <53,7,12>, <54,7,7>, <55,7,6>, <56,7,1>, <57,7,2>, <58,7,8>, <59,7,2>, <61,7,2>, <62,7,12>, <63,7,4>, <64,7,17>, <65,7,16>, <66,7,18>, <67,7,16>, <68,7,14>, <70,7,4>, <71,7,3>, <72,7,3>, <73,7,3>, <74,7,14>, <75,7,5>, <76,7,3>, <77,7,7>, <78,7,20>, <79,7,3>, <80,7,8>, <81,7,2>, <82,7,18>, <83,7,12>, <84,7,7>, <87,7,11>, <88,7,15>, <89,7,7>, <90,7,18>, <91,7,8>, <92,7,12>, <93,7,9>, <94,7,2>, <95,7,22>, <96,7,6>, <97,7,6>, <98,7,6>, <99,7,4>, <100,7,8>, <1,1,44>, <2,1,409>, <3,1,231>, <4,1,211>, <5,1,90>, <6,1,18>, <7,1,42>, <8,1,29>, <9,1,68>, <10,1,23>, <11,1,95>, <12,1,147>, <13,1,4>, <14,1,57>, <15,1,33>, <16,1,14>, <17,1,8>, <18,1,29>, <19,1,103>, <20,1,18>, <21,1,11>, <22,1,27>, <23,1,28>, <24,1,42>, <25,1,17>, <26,1,23>, <27,1,41>, <28,1,3>, <29,1,2>, <30,1,29>, <31,1,41>, <32,1,3>, <33,1,26>, <34,1,2>, <35,1,2>, <36,1,4>, <37,1,7>, <38,1,4>, <39,1,24>, <40,1,8>, <41,1,50>, <42,1,28>, <43,1,7>, <44,1,6>, <45,1,20>, <47,1,1>, <48,1,9>, <49,1,19>, <50,1,3>, <51,1,52>, <52,1,18>, <53,1,5>, <54,1,6>, <55,1,14>, <56,1,12>, <57,1,1>, <59,1,16>, <60,1,1>, <61,1,3>, <62,1,1>, <63,1,26>, <64,1,5>, <65,1,2>, <66,1,13>, <67,1,10>, <68,1,5>, <69,1,2>, <70,1,36>, <71,1,1>, <72,1,12>, <73,1,8>, <74,1,8>, <75,1,2>, <76,1,15>, <77,1,18>, <78,1,8>, <79,1,6>, <80,1,8>, <81,1,15>, <82,1,5>, <83,1,5>, <84,1,1>, <85,1,6>, <86,1,9>, <87,1,5>, <88,1,7>, <89,1,2>, <90,1,13>, <91,1,16>, <92,1,2>, <93,1,12>, <94,1,2>, <95,1,6>, <97,1,4>, <99,1,10>, <100,1,8>, <1,10,476>, <2,10,149>, <3,10,52>, <4,10,335>, <5,10,138>, <6,10,152>, <7,10,237>, <8,10,13>, <9,10,22>, <10,10,23>, <11,10,69>, <12,10,19>, <13,10,6>, <14,10,44>, <15,10,61>, <16,10,123>, <17,10,8>, <18,10,23>, <19,10,10>, <20,10,1>, <21,10,1>, <22,10,28>, <23,10,79>, <24,10,60>, <25,10,47>, <26,10,16>, <27,10,2>, <28,10,21>, <29,10,17>, <30,10,10>, <31,10,11>, <32,10,2>, <33,10,19>, <34,10,19>, <35,10,29>, <36,10,4>, <37,10,11>, <38,10,6>, <39,10,17>, <40,10,10>, <41,10,16>, <42,10,3>, <43,10,7>, <44,10,3>, <45,10,11>, <46,10,4>, <47,10,19>, <48,10,9>, <49,10,3>, <50,10,11>, <51,10,1>, <52,10,3>, <53,10,1>, <54,10,7>, <55,10,3>, <56,10,8>, <57,10,8>, <58,10,13>, <59,10,17>, <60,10,16>, <61,10,36>, <62,10,7>, <63,10,9>, <64,10,3>, <65,10,4>, <66,10,12>, <67,10,17>, <68,10,8>, <69,10,9>, <70,10,3>, <71,10,36>, <72,10,1>, <73,10,6>, <74,10,5>, <75,10,9>, <76,10,4>, <77,10,7>, <78,10,1>, <79,10,4>, <80,10,8>, <81,10,3>, <82,10,6>, <83,10,1>, <84,10,10>, <85,10,7>, <86,10,3>, <87,10,3>, <89,10,21>, <90,10,2>, <91,10,7>, <92,10,18>, <93,10,5>, <94,10,6>, <95,10,2>, <96,10,6>, <97,10,18>, <98,10,2>, <99,10,1>, <100,10,4> };

MaxCacheStorageAtSingleAS= [ 131.25  131.25  131.25  131.25  131.25  131.25  131.25  131.25  131.25  131.25  131.25 ] ;

MaxCacheStorage = 1443.75 ;
SolutionGap = 0.01 ;
